src/data/basic_models/cplex
/opt/ibm/ILOG/CPLEX_Studio221/cplex/bin/x86-64_linux/cplex